peakDumbCharging = 18500; 
Machine = anon_enum(16); 
machineSpeed = [3700,3700,3700,3700,3700,3700,3700,3700,3700,3700,3700,3700,3700,3700,3700,3700]; 
machineLoad = [3700,3700,3700,3700,3700,3700,3700,3700,3700,3700,3700,3700,3700,3700,3700,3700]; 
Car = anon_enum(22); 
demandCar = [6520,8760,11120,640,80,15120,15480,6320,16640,15880,8840,3600,5160,12640,6640,40,2520,11800,24240,7040,2320,15080]; 
arrivalCar = [77,75,74,73,73,70,62,58,57,55,49,49,47,35,33,33,32,31,31,29,29,18]; 
departureCar = [80,79,79,75,74,76,68,60,63,61,54,52,51,41,38,34,35,38,56,33,31,24]; 
